tsp_instances/TSP50/instance99.tsp
NODE_COORD_SECTION
0 195 196
1 7 92
2 155 193
3 184 159
4 104 47
5 63 181
6 33 196
7 95 157
8 197 188
9 12 122
10 178 195
11 92 150
12 75 111
13 143 190
14 94 34
15 183 155
16 90 173
17 11 62
18 128 22
19 1 86
20 105 31
21 103 150
22 84 98
23 3 19
24 105 197
25 162 66
26 2 197
27 155 169
28 194 157
29 25 142
30 178 162
31 54 96
32 164 39
33 142 29
34 21 97
35 106 156
36 68 17
37 32 127
38 65 192
39 198 20
40 155 83
41 58 4
42 75 130
43 164 98
44 53 58
45 23 129
46 124 69
47 63 110
48 196 174
49 135 122
