tsp_instances/TSP50/instance99.opt.tour
TOUR_SECTION
1
9
49
29
16
4
31
28
50
44
41
26
40
33
34
19
21
15
5
47
23
13
43
48
32
45
37
42
24
18
20
2
35
10
46
38
30
27
7
39
6
17
8
12
22
36
25
14
3
11
-1